COLUMNS

passenger_count
pickup_ID
dropoff_ID
request_time_sec
pickup_district
dropoff_district
LDuals
IDuals
vehicle_ID
pick_position
drop_position

REQUESTS_INFO
1      235       349       32115     87        127       158       158       31        1         2         
1      461       583       32109     189       189       112       112       68        1         4         
1      746       699       32074     290       290       214       214       84        1         2         
1      837       628       32127     290       189       167       167       97        1         4         
1      858       628       31990     290       189       297       297       101       1         2         
2      838       604       32081     290       189       234       234       105       1         2         
3      410       437       32077     52        100       188       188       117       1         2         
1      791       652       32071     290       189       219       219       124       1         2         
3      791       990       32020     290       290       270       270       130       1         2         
1      371       247       32122     52        266       145       145       132       1         2         
3      887       82        32102     290       98        214       214       188       1         3         
1      792       581       32081     290       189       198       198       227       1         3         
1      771       669       32121     290       280       122       122       363       1         5         
1      391       528       32095     52        52        203       203       376       1         2         
2      914       748       32114     291       290       151       151       387       1         3         
1      287       370       32109     299       52        135.5     135.5     400       1         2         
1      812       721       32120     290       290       108       108       410       1         4         
1      662       199       32122     131       178       103       103       470       1         3         
1      643       759       32088     131       131       184       184       526       1         2         
1      576       604       32119     189       189       126.5     126.5     528       1         3         
4      817       760       32128     290       291       156       156       532       1         2         
1      1053      1069      32083     84        291       256       256       590       1         3         
3      887       82        32102     290       98        214       214       601       1         3         
1      789       720       32085     290       290       162       162       611       1         3         
3      819       483       31796     999       189       520       520       641       1         2         
1      972       605       32117     290       189       126       126       645       1         2         
3      813       923       32094     290       290       213       213       651       1         2         
1      630       720       32074     189       290       155       155       660       1         2         
1      1131      859       32110     291       290       162       162       668       1         3         
1      795       779       32085     290       131       168       168       685       1         3         
1      898       923       32073     50        290       179       179       690       1         3         
1      896       833       32102     291       50        202       202       690       2         4         
1      850       1003      32108     291       291       171       171       756       1         3         
1      482       647       32107     189       280       122       122       761       1         3         
1      861       925       32059     290       290       233       233       777       1         3         
1      860       989       32072     290       50        235       235       777       2         4         
1      314       462       32127     119       189       104       104       786       1         2         
1      838       394       32094     290       100       221       221       792       1         2         
1      909       1005      32075     290       50        225       225       844       1         3         
3      1106      1244      32019     291       192       210       210       856       1         2         
1      791       991       32109     290       290       166       166       870       1         3         
1      573       644       32110     189       131       140       140       878       1         2         
4      914       654       31575     291       189       712       712       895       1         2         
1      860       649       32072     290       189       235       235       909       1         2         
2      915       739       32107     291       189       153       153       916       1         2         
2      903       814       32045     290       290       230       230       993       1         2         
3      618       535       32115     131       189       118       118       994       1         3         
2      858       602       32095     290       189       192       192       1023      1         2         
4      940       871       31666     291       291       649       649       1041      1         2         
3      972       693       32094     290       280       238       238       1056      1         2         
1      1027      694       32124     50        189       183       183       1077      1         3         
3      1003      827       31901     291       291       378       378       1094      1         2         
1      863       627       32050     290       189       264       264       1163      1         3         
1      745       604       32120     290       189       148       148       1164      1         2         
2      990       1078      32073     290       84        305       305       1194      1         2         
1      863       606       32072     290       189       242       242       1228      1         3         
4      893       981       32114     291       291       163       163       1251      1         2         
1      552       782       32078     189       291       172       172       1279      1         2         
3      654       535       32092     189       189       148       148       1324      1         2         
3      914       626       32004     291       189       280       280       1360      1         2         
2      973       1032      32082     84        84        273       273       1416      1         2         
1      332       526       32109     87        52        119       119       1450      1         3         
4      771       673       32124     290       189       146       146       1463      1         2         
1      1088      651       32123     291       189       149       149       1478      1         3         
1      860       544       32058     290       52        231       231       1502      1         3         
2      654       20        32108     189       98        132       132       1584      1         4         
1      1128      693       32092     291       280       158       158       1754      1         2         
3      765       718       32087     290       189       159       159       1815      1         2         
2      408       228       32128     299       266       97        97        1821      1         2         
3      1066      693       31678     291       280       611       611       1863      1         3         
3      155       372       32105     286       119       117       117       1975      1         3         
1      531       232       32130     189       266       0         0         0         0         0         
2      1338      1012      32130     129       84        0         0         0         0         0         
1      582       670       32130     189       280       0         0         0         0         0         
1      836       721       32130     290       290       0         0         0         0         0         
1      377       328       32131     168       299       0         0         0         0         0         
1      748       628       32131     290       189       0         0         0         0         0         
1      759       1023      32131     131       291       0         0         0         0         0         
1      700       726       32131     290       290       0         0         0         0         0         
3      504       291       32131     52        87        0         0         0         0         0         
2      504       291       32131     52        87        0         0         0         0         0         
1      530       576       32132     189       189       0         0         0         0         0         
2      629       782       32132     189       291       0         0         0         0         0         
1      766       688       32132     290       131       0         0         0         0         0         
1      505       862       32132     52        290       0         0         0         0         0         
1      747       906       32132     290       290       0         0         0         0         0         
1      509       335       32132     199       119       0         0         0         0         0         
1      969       697       32132     290       189       0         0         0         0         0         
3      534       676       32133     199       189       0         0         0         0         0         
2      534       676       32133     199       189       0         0         0         0         0         
1      602       507       32133     189       189       0         0         0         0         0         
2      524       478       32133     52        52        0         0         0         0         0         
1      229       213       32133     266       266       0         0         0         0         0         
1      1149      1386      32133     291       129       0         0         0         0         0         
1      488       556       32133     199       199       0         0         0         0         0         
1      397       534       32133     168       199       0         0         0         0         0         
1      532       698       32133     199       189       0         0         0         0         0         
1      458       737       32134     52        189       0         0         0         0         0         
3      742       882       32134     290       290       0         0         0         0         0         
1      720       606       32134     290       189       0         0         0         0         0         
1      655       444       32134     189       168       0         0         0         0         0         
1      583       725       32134     189       290       0         0         0         0         0         
3      889       1003      32134     290       291       0         0         0         0         0         
2      884       835       32134     290       290       0         0         0         0         0         
2      889       1003      32134     290       291       0         0         0         0         0         
1      852       1031      32135     291       50        0         0         0         0         0         
1      884       945       32135     290       50        0         0         0         0         0         
2      529       627       32135     189       189       0         0         0         0         0         
1      861       717       32135     290       189       0         0         0         0         0         
1      269       748       32135     127       290       0         0         0         0         0         
1      744       580       32135     290       189       0         0         0         0         0         
1      603       630       32135     189       189       0         0         0         0         0         
1      457       415       32135     52        100       0         0         0         0         0         
2      655       628       32135     189       189       0         0         0         0         0         
1      717       483       32136     189       189       0         0         0         0         0         
1      990       119       32136     290       286       0         0         0         0         0         
1      795       355       32136     290       119       0         0         0         0         0         
1      462       529       32136     189       189       0         0         0         0         0         
1      314       399       32136     119       168       0         0         0         0         0         
1      748       535       32136     290       189       0         0         0         0         0         
1      509       574       32136     199       189       0         0         0         0         0         
1      644       693       32136     131       280       0         0         0         0         0         
1      504       325       32136     52        299       0         0         0         0         0         
1      939       782       32138     291       291       0         0         0         0         0         
1      621       711       32138     280       131       0         0         0         0         0         
1      48        291       32138     98        87        0         0         0         0         0         
1      915       770       32138     291       290       0         0         0         0         0         
1      884       726       32138     290       290       0         0         0         0         0         
1      768       531       32138     290       189       0         0         0         0         0         
3      354       578       32138     119       189       0         0         0         0         0         
3      354       578       32138     119       189       0         0         0         0         0         
2      152       503       32139     9         52        0         0         0         0         0         
1      794       940       32139     290       291       0         0         0         0         0         
1      510       537       32139     199       189       0         0         0         0         0         
1      791       671       32139     290       280       0         0         0         0         0         
1      991       924       32139     290       290       0         0         0         0         0         
1      673       459       32139     189       189       0         0         0         0         0         
1      1025      1300      32139     291       192       0         0         0         0         0         
1      392       651       32139     52        189       0         0         0         0         0         
3      208       232       32140     286       266       0         0         0         0         0         
3      208       232       32140     286       266       0         0         0         0         0         
1      925       766       32140     290       290       0         0         0         0         0         
1      726       122       32140     290       54        0         0         0         0         0         
1      732       430       32140     131       52        0         0         0         0         0         
1      597       63        32140     131       98        0         0         0         0         0         
1      454       606       32141     52        189       0         0         0         0         0         
1      475       1044      32141     52        291       0         0         0         0         0         
1      662       314       32141     131       119       0         0         0         0         0         
1      663       715       32141     131       131       0         0         0         0         0         
1      654       726       32141     189       290       0         0         0         0         0         
3      439       649       32141     189       189       0         0         0         0         0         
1      778       894       32141     131       291       0         0         0         0         0         
1      745       506       32142     290       189       0         0         0         0         0         
1      1300      1267      32142     192       129       0         0         0         0         0         
1      675       779       32142     189       131       0         0         0         0         0         
1      959       647       32143     291       280       0         0         0         0         0         
1      511       629       32143     199       189       0         0         0         0         0         
2      79        534       32143     98        199       0         0         0         0         0         
1      693       117       32143     280       286       0         0         0         0         0         
3      138       255       32143     57        87        0         0         0         0         0         
3      138       255       32143     57        87        0         0         0         0         0         
1      1025      962       32144     291       291       0         0         0         0         0         
2      947       415       32144     290       100       0         0         0         0         0         
1      804       724       32144     291       290       0         0         0         0         0         
1      874       768       32144     291       290       0         0         0         0         0         
1      702       1701      32144     290       142       0         0         0         0         0         
1      485       209       32144     189       266       0         0         0         0         0         
1      455       533       32145     52        199       0         0         0         0         0         
1      309       116       32145     127       9         0         0         0         0         0         
1      399       512       32145     168       199       0         0         0         0         0         
1      488       674       32145     199       189       0         0         0         0         0         
1      485       333       32145     189       119       0         0         0         0         0         
1      482       11        32145     189       999       0         0         0         0         0         
1      904       1068      32146     290       291       0         0         0         0         0         
3      498       267       32146     52        266       0         0         0         0         0         
2      498       267       32146     52        266       0         0         0         0         0         
3      701       720       32146     290       290       0         0         0         0         0         
2      701       720       32146     290       290       0         0         0         0         0         
1      522       138       32146     52        57        0         0         0         0         0         
1      325       597       32146     299       131       0         0         0         0         0         
1      743       837       32147     290       290       0         0         0         0         0         
1      395       651       32147     100       189       0         0         0         0         0         
4      394       134       32147     100       9         0         0         0         0         0         
1      694       602       32147     189       189       0         0         0         0         0         
1      628       698       32147     189       189       0         0         0         0         0         
1      499       267       32147     52        266       0         0         0         0         0         
1      963       836       32147     50        290       0         0         0         0         0         
1      377       532       32147     168       199       0         0         0         0         0         
1      207       35        32148     286       98        0         0         0         0         0         
1      700       766       32148     290       290       0         0         0         0         0         
1      306       193       32149     299       266       0         0         0         0         0         
1      505       117       32149     52        286       0         0         0         0         0         
3      768       782       32149     290       291       0         0         0         0         0         
1      436       416       32149     100       100       0         0         0         0         0         
2      545       503       32149     52        52        0         0         0         0         0         
2      1378      1053      32149     129       84        0         0         0         0         0         
2      980       1372      32149     291       129       0         0         0         0         0         
3      980       1372      32149     291       129       0         0         0         0         0         
3      768       782       32149     290       291       0         0         0         0         0         
1      916       846       32149     291       291       0         0         0         0         0         
1      291       291       32149     87        87        0         0         0         0         0         
1      218       389       32150     87        299       0         0         0         0         0         
1      794       653       32150     290       189       0         0         0         0         0         
1      749       834       32150     290       290       0         0         0         0         0         
1      631       1282      32150     189       192       0         0         0         0         0         
1      436       371       32150     100       52        0         0         0         0         0         
3      991       1208      32150     290       192       0         0         0         0         0         
1      951       552       32150     290       189       0         0         0         0         0         
1      1025      551       32150     291       189       0         0         0         0         0         
2      479       1300      32150     52        192       0         0         0         0         0         
1      43        727       32151     9         290       0         0         0         0         0         
1      508       627       32151     199       189       0         0         0         0         0         
1      1107      1208      32151     291       192       0         0         0         0         0         
2      503       230       32151     52        266       0         0         0         0         0         
3      503       230       32151     52        266       0         0         0         0         0         
2      325       394       32152     299       100       0         0         0         0         0         
2      599       580       32152     280       189       0         0         0         0         0         
1      744       727       32152     290       290       0         0         0         0         0         
1      857       696       32152     290       189       0         0         0         0         0         
1      834       1010      32152     290       290       0         0         0         0         0         
1      1090      1000      32152     291       291       0         0         0         0         0         
2      258       291       32152     87        87        0         0         0         0         0         
1      745       628       32152     290       189       0         0         0         0         0         
1      599       393       32152     280       52        0         0         0         0         0         
1      767       581       32152     290       189       0         0         0         0         0         
2      622       504       32152     280       52        0         0         0         0         0         
1      308       238       32152     127       87        0         0         0         0         0         
1      277       458       32152     87        52        0         0         0         0         0         
3      325       394       32152     299       100       0         0         0         0         0         
1      758       35        32153     131       98        0         0         0         0         0         
1      699       811       32153     290       290       0         0         0         0         0         
1      758       649       32153     131       189       0         0         0         0         0         
1      233       310       32153     206       127       0         0         0         0         0         
3      810       859       32153     290       290       0         0         0         0         0         
2      810       859       32153     290       290       0         0         0         0         0         
2      748       624       32154     290       189       0         0         0         0         0         
3      968       1217      32154     290       84        0         0         0         0         0         
3      968       1217      32154     290       84        0         0         0         0         0         
3      578       527       32154     189       52        0         0         0         0         0         
2      573       672       32154     189       189       0         0         0         0         0         
2      578       527       32154     189       52        0         0         0         0         0         
3      837       720       32154     290       290       0         0         0         0         0         
3      837       720       32154     290       290       0         0         0         0         0         
3      573       672       32154     189       189       0         0         0         0         0         
2      46        556       32154     98        199       0         0         0         0         0         
2      760       904       32155     291       290       0         0         0         0         0         
1      156       653       32155     286       189       0         0         0         0         0         
1      662       189       32155     131       286       0         0         0         0         0         
1      546       603       32155     52        189       0         0         0         0         0         
1      255       372       32155     87        119       0         0         0         0         0         
1      351       594       32155     52        131       0         0         0         0         0         
3      760       904       32155     291       290       0         0         0         0         0         
1      65        20        32156     98        98        0         0         0         0         0         
2      461       413       32156     189       52        0         0         0         0         0         
2      455       522       32156     52        52        0         0         0         0         0         
3      35        292       32156     98        87        0         0         0         0         0         
3      669       371       32157     280       52        0         0         0         0         0         
1      1031      968       32157     50        290       0         0         0         0         0         
1      873       788       32157     291       290       0         0         0         0         0         
1      1065      962       32158     291       291       0         0         0         0         0         
2      647       776       32158     280       131       0         0         0         0         0         
3      720       626       32158     290       189       0         0         0         0         0         
1      412       392       32158     52        52        0         0         0         0         0         
1      852       675       32159     291       189       0         0         0         0         0         
1      971       713       32159     290       131       0         0         0         0         0         
4      652       992       32159     189       290       0         0         0         0         0         
1      991       626       32159     290       189       0         0         0         0         0         
1      1475      1449      32159     296       129       0         0         0         0         0         
1      488       817       32159     199       290       0         0         0         0         0         
